75 1000
85 89 9 1 75 79 14 0 57 74 14 61 8 94 3 60 55 52 62 5 58 96 99 95 1 28 40 84 72 12 17 82 61 75 50 7 38 46 28 41 58 14 31 76 11 73 49 54 47 88 86 29 87 24 57 5 46 99 22 34 27 51 6 68 20 47 99 7 63 67 47 1 24 32 70 